p cnf 60 280
1 2 3 4 5 6 0
7 8 9 10 11 12 0
13 14 15 16 17 18 0
19 20 21 22 23 24 0
25 26 27 28 29 30 0
31 32 33 34 35 36 0
37 38 39 40 41 42 0
43 44 45 46 47 48 0
49 50 51 52 53 54 0
55 56 57 58 59 60 0
-1 -7 0
-1 -13 0
-1 -19 0
-1 -25 0
-1 -31 0
-1 -37 0
-1 -43 0
-1 -49 0
-1 -55 0
-7 -13 0
-7 -19 0
-7 -25 0
-7 -31 0
-7 -37 0
-7 -43 0
-7 -49 0
-7 -55 0
-13 -19 0
-13 -25 0
-13 -31 0
-13 -37 0
-13 -43 0
-13 -49 0
-13 -55 0
-19 -25 0
-19 -31 0
-19 -37 0
-19 -43 0
-19 -49 0
-19 -55 0
-25 -31 0
-25 -37 0
-25 -43 0
-25 -49 0
-25 -55 0
-31 -37 0
-31 -43 0
-31 -49 0
-31 -55 0
-37 -43 0
-37 -49 0
-37 -55 0
-43 -49 0
-43 -55 0
-49 -55 0
-2 -8 0
-2 -14 0
-2 -20 0
-2 -26 0
-2 -32 0
-2 -38 0
-2 -44 0
-2 -50 0
-2 -56 0
-8 -14 0
-8 -20 0
-8 -26 0
-8 -32 0
-8 -38 0
-8 -44 0
-8 -50 0
-8 -56 0
-14 -20 0
-14 -26 0
-14 -32 0
-14 -38 0
-14 -44 0
-14 -50 0
-14 -56 0
-20 -26 0
-20 -32 0
-20 -38 0
-20 -44 0
-20 -50 0
-20 -56 0
-26 -32 0
-26 -38 0
-26 -44 0
-26 -50 0
-26 -56 0
-32 -38 0
-32 -44 0
-32 -50 0
-32 -56 0
-38 -44 0
-38 -50 0
-38 -56 0
-44 -50 0
-44 -56 0
-50 -56 0
-3 -9 0
-3 -15 0
-3 -21 0
-3 -27 0
-3 -33 0
-3 -39 0
-3 -45 0
-3 -51 0
-3 -57 0
-9 -15 0
-9 -21 0
-9 -27 0
-9 -33 0
-9 -39 0
-9 -45 0
-9 -51 0
-9 -57 0
-15 -21 0
-15 -27 0
-15 -33 0
-15 -39 0
-15 -45 0
-15 -51 0
-15 -57 0
-21 -27 0
-21 -33 0
-21 -39 0
-21 -45 0
-21 -51 0
-21 -57 0
-27 -33 0
-27 -39 0
-27 -45 0
-27 -51 0
-27 -57 0
-33 -39 0
-33 -45 0
-33 -51 0
-33 -57 0
-39 -45 0
-39 -51 0
-39 -57 0
-45 -51 0
-45 -57 0
-51 -57 0
-4 -10 0
-4 -16 0
-4 -22 0
-4 -28 0
-4 -34 0
-4 -40 0
-4 -46 0
-4 -52 0
-4 -58 0
-10 -16 0
-10 -22 0
-10 -28 0
-10 -34 0
-10 -40 0
-10 -46 0
-10 -52 0
-10 -58 0
-16 -22 0
-16 -28 0
-16 -34 0
-16 -40 0
-16 -46 0
-16 -52 0
-16 -58 0
-22 -28 0
-22 -34 0
-22 -40 0
-22 -46 0
-22 -52 0
-22 -58 0
-28 -34 0
-28 -40 0
-28 -46 0
-28 -52 0
-28 -58 0
-34 -40 0
-34 -46 0
-34 -52 0
-34 -58 0
-40 -46 0
-40 -52 0
-40 -58 0
-46 -52 0
-46 -58 0
-52 -58 0
-5 -11 0
-5 -17 0
-5 -23 0
-5 -29 0
-5 -35 0
-5 -41 0
-5 -47 0
-5 -53 0
-5 -59 0
-11 -17 0
-11 -23 0
-11 -29 0
-11 -35 0
-11 -41 0
-11 -47 0
-11 -53 0
-11 -59 0
-17 -23 0
-17 -29 0
-17 -35 0
-17 -41 0
-17 -47 0
-17 -53 0
-17 -59 0
-23 -29 0
-23 -35 0
-23 -41 0
-23 -47 0
-23 -53 0
-23 -59 0
-29 -35 0
-29 -41 0
-29 -47 0
-29 -53 0
-29 -59 0
-35 -41 0
-35 -47 0
-35 -53 0
-35 -59 0
-41 -47 0
-41 -53 0
-41 -59 0
-47 -53 0
-47 -59 0
-53 -59 0
-6 -12 0
-6 -18 0
-6 -24 0
-6 -30 0
-6 -36 0
-6 -42 0
-6 -48 0
-6 -54 0
-6 -60 0
-12 -18 0
-12 -24 0
-12 -30 0
-12 -36 0
-12 -42 0
-12 -48 0
-12 -54 0
-12 -60 0
-18 -24 0
-18 -30 0
-18 -36 0
-18 -42 0
-18 -48 0
-18 -54 0
-18 -60 0
-24 -30 0
-24 -36 0
-24 -42 0
-24 -48 0
-24 -54 0
-24 -60 0
-30 -36 0
-30 -42 0
-30 -48 0
-30 -54 0
-30 -60 0
-36 -42 0
-36 -48 0
-36 -54 0
-36 -60 0
-42 -48 0
-42 -54 0
-42 -60 0
-48 -54 0
-48 -60 0
-54 -60 0
